120
150
35
43
100
92
76
69
72
69
80
35
86
29
25
35
25
23
86
35
49
53
92
97
35
53
64
41
80
92
69
72
77
60
45
97
58
100
75
75
53
63
39
50
67
46
48
20
44
20
37
77
84
72
64
40
84
29
64
56
86
24
40
77
31
42
49
69
75
75
69
80
31
77
29
97
60
90
56
44
75
75
77
24
66
84
53
77
72
97
97
75
34
49
53
50
49
44
86
64
84
31
92
56
72
25
53
69
72
97
84
35
53
41
35
56
58
72
78
36
97
97
